scripts/logs/SAT-i7/bwp_11_3_1.SAT.log.out
Sun 3 Jun 21:12:14 CEST 2018
    [1;34mTry max length:[0m 999999
    [1;34m    At iteration:[0m 0
        lingeling found a solution in .011 ms

      | W
    L | 0 1 2 3 4 5 6 7 8 9 10 
    ----------------------------
    0 | . . . . . . . . . .  . 
    1 | . . . . . . . . . .  1 
    2 | . . 2 . 3 . . . . .  . 
    
    Boxes' corners:      (w,l)
        Box 1 is at 
            top left     (10,1)
            bottom right (10,1)
    
        Box 2 is at 
            top left     (2,2)
            bottom right (2,2)
    
        Box 3 is at 
            top left     (4,2)
            bottom right (4,2)
    
        Roll length used: 3

    [1;34mTry max length:[0m 2
    [1;34m    At iteration:[0m 1
        lingeling found a solution in .005 ms

      | W
    L | 0 1 2 3 4 5 6 7 8 9 10 
    ----------------------------
    0 | . . . . 3 . . . . .  . 
    1 | . . . . . . . . 1 2  . 
    
    Boxes' corners:      (w,l)
        Box 1 is at 
            top left     (8,1)
            bottom right (8,1)
    
        Box 2 is at 
            top left     (9,1)
            bottom right (9,1)
    
        Box 3 is at 
            top left     (4,0)
            bottom right (4,0)
    
        Roll length used: 2

    [1;34mTry max length:[0m 1
    [1;34m    At iteration:[0m 2
        lingeling found a solution in .004 ms

      | W
    L | 0 1 2 3 4 5 6 7 8 9 10 
    ----------------------------
    0 | . 1 . . . . . . 3 .  2 
    
    Boxes' corners:      (w,l)
        Box 1 is at 
            top left     (1,0)
            bottom right (1,0)
    
        Box 2 is at 
            top left     (10,0)
            bottom right (10,0)
    
        Box 3 is at 
            top left     (8,0)
            bottom right (8,0)
    
        Roll length used: 1

    [1;34mTry max length:[0m 0
    [1;34m    At iteration:[0m 3
        [3;31mlingeling determined unsatisfiability of the Boolean formula[0m
        [1;32mOptimality reached![0m
